p cnf 15 15
-10 -14 -11 -1 8 7 2 -9 12 3 13 -6 0
14 13 -4 12 5 -2 -3 -1 -9 0
-1 10 13 12 -15 -8 3 -14 6 -9 -4 -11 0
-11 14 -1 -5 10 0
4 3 -13 0
-14 -15 -1 -6 -11 -5 3 4 -2 13 8 0
2 -8 3 14 -5 -4 -11 15 -9 -7 -10 1 0
-1 14 10 -9 11 12 5 3 6 4 -2 -8 -13 -15 -7 0
14 4 -10 12 -1 -5 15 -3 13 -6 -8 -9 11 2 7 0
6 -13 10 -7 -12 2 -9 4 -5 3 15 0
3 6 -11 10 -5 0
-12 4 0
10 -12 -13 -7 -2 11 3 -1 -8 15 0
8 -9 2 1 -12 -6 5 0
4 -13 -5 -3 10 -11 0
